
Gurobi 9.1.2 (win64, Java) logging started Sun Nov 14 13:56:19 2021

Academic license - for non-commercial use only - expires 2022-10-30
Gurobi Optimizer version 9.1.2 build v9.1.2rc0 (win64)
Thread count: 6 physical cores, 12 logical processors, using up to 12 threads
Optimize a model with 110 rows, 1000 columns and 2000 nonzeros
Model fingerprint: 0xace5b1fd
Variable types: 0 continuous, 1000 integer (1000 binary)
Coefficient statistics:
  Matrix range     [1e+00, 1e+03]
  Objective range  [2e+01, 1e+03]
  Bounds range     [1e+00, 1e+00]
  RHS range        [1e+00, 5e+03]
Found heuristic solution: objective 24296.000000
Presolve time: 0.02s
Presolved: 110 rows, 1000 columns, 2000 nonzeros
Variable types: 0 continuous, 1000 integer (1000 binary)
Presolved: 110 rows, 1000 columns, 2000 nonzeros


Root relaxation: objective 3.926988e+04, 159 iterations, 0.00 seconds

    Nodes    |    Current Node    |     Objective Bounds      |     Work
 Expl Unexpl |  Obj  Depth IntInf | Incumbent    BestBd   Gap | It/Node Time

     0     0 39269.8767    0   13 24296.0000 39269.8767  61.6%     -    0s
H    0     0                    38625.000000 39269.8767  1.67%     -    0s
     0     0 39269.8767    0   26 38625.0000 39269.8767  1.67%     -    0s
H    0     0                    39019.000000 39269.8767  0.64%     -    1s
     0     0 39269.8767    0   26 39019.0000 39269.8767  0.64%     -    1s
     0     0 39269.8767    0   12 39019.0000 39269.8767  0.64%     -    1s
     0     0 39269.8767    0   15 39019.0000 39269.8767  0.64%     -    1s
H    0     0                    39035.000000 39269.8767  0.60%     -    2s
     0     0 39269.8767    0   23 39035.0000 39269.8767  0.60%     -    2s
     0     0 39269.8767    0   23 39035.0000 39269.8767  0.60%     -    2s
     0     0 39269.8767    0   22 39035.0000 39269.8767  0.60%     -    2s
     0     0 39269.8767    0    8 39035.0000 39269.8767  0.60%     -    2s
     0     2 39269.8767    0    8 39035.0000 39269.8767  0.60%     -    3s
H   33    41                    39037.000000 39269.8767  0.60%   8.2    4s
    40    52 39269.8767    9   23 39037.0000 39269.8767  0.60%   8.1    5s
H 1563  1402                    39091.000000 39269.8767  0.46%   6.2    7s
H 2560  2023                    39199.000000 39269.8767  0.18%   6.4    9s
  2567  2027 39233.9709   21   21 39199.0000 39233.9709  0.09%   6.4   10s
  2627  2075 39209.8896   33   14 39199.0000 39233.9709  0.09%   8.8   15s
  2692  2128 39233.9709   36   16 39199.0000 39233.9709  0.09%   8.7   20s
 25560 15832 39226.1149   79   14 39199.0000 39226.9518  0.07%   4.6   25s
 35878 19617 39225.2356   64   33 39199.0000 39225.7219  0.07%   4.5   30s
H35885 18640                    39222.000000 39225.6559  0.01%   4.5   35s
 35896 18647 39222.0000   71   17 39222.0000 39225.6559  0.01%   4.5   40s

Cutting planes:
  Gomory: 10
  Cover: 23
  MIR: 20
  StrongCG: 19
  Flow cover: 10
  Zero half: 2
  RLT: 31

Explored 35898 nodes (169868 simplex iterations) in 40.89 seconds
Thread count was 12 (of 12 available processors)

Solution count 8: 39222 39199 39091 ... 24296

Optimal solution found (tolerance 1.00e-12)
Best objective 3.922200000000e+04, best bound 3.922200000000e+04, gap 0.0000%
